Version identifier: 22.1.0.0 | 2022-03-09 | 1a383f8ce
CPXPARAM_Threads                                 1
CPXPARAM_MIP_Strategy_VariableSelect             3
CPXPARAM_TimeLimit                               600
Retaining values of one MIP start for possible repair.
Tried aggregator 2 times.
MIP Presolve eliminated 40 rows and 1 columns.
MIP Presolve added 36 rows and 9 columns.
MIP Presolve modified 56 coefficients.
Aggregator did 9 substitutions.
Reduced MIP has 1813 rows, 7800 columns, and 127220 nonzeros.
Reduced MIP has 7800 binaries, 0 generals, 0 SOSs, and 0 indicators.
Presolve time = 0.16 sec. (230.53 ticks)
Found incumbent of value 1.000000 after 0.21 sec. (254.23 ticks)
Probing time = 0.02 sec. (21.63 ticks)
Tried aggregator 1 time.
Detecting symmetries...
MIP Presolve modified 14 coefficients.
Reduced MIP has 1813 rows, 7800 columns, and 127516 nonzeros.
Reduced MIP has 7800 binaries, 0 generals, 0 SOSs, and 0 indicators.
Presolve time = 0.12 sec. (173.93 ticks)
Probing time = 0.02 sec. (21.67 ticks)
Clique table members: 1195.
MIP emphasis: balance optimality and feasibility.
MIP search method: dynamic search.
Parallel mode: none, using 1 thread.
Root relaxation solution time = 2.08 sec. (2539.11 ticks)

        Nodes                                         Cuts/
   Node  Left     Objective  IInf  Best Integer    Best Bound    ItCnt     Gap

*     0+    0                            1.0000    45150.0000              --- 
      0     0      300.0000  1316        1.0000      300.0000     6056     --- 
      0     0      300.0000   394        1.0000       Cuts: 7     7093     --- 
      0     0      300.0000   637        1.0000     Cuts: 102    13265     --- 
*     0+    0                          142.0000      300.0000           111.27%
      0     0      300.0000   798      142.0000      Cuts: 25    18132  111.27%
*     0+    0                          231.0000      300.0000            29.87%
      0     0        cutoff            231.0000      300.0000    18132   29.87%
*     0+    0                          247.0000      300.0000            21.46%
*     0+    0                          276.0000      300.0000             8.70%
Repair heuristic found nothing.
Detecting symmetries...
      0     2      300.0000   276      276.0000      300.0000    18132    8.70%
Elapsed time = 68.03 sec. (74078.46 ticks, tree = 0.01 MB, solutions = 5)
      1     3      300.0000   629      276.0000      300.0000    28820    8.70%
      2     4      300.0000   403      276.0000      300.0000    32315    8.70%
      3     5      300.0000  1060      276.0000      300.0000    42127    8.70%
      4     6      300.0000   419      276.0000      300.0000    43391    8.70%
      5     7      300.0000   463      276.0000      300.0000    50897    8.70%
      6     8      300.0000   692      276.0000      300.0000    54886    8.70%
      7     9      300.0000   663      276.0000      300.0000    65274    8.70%
      8    10      300.0000   445      276.0000      300.0000    65596    8.70%
      9    11      300.0000   741      276.0000      300.0000    72561    8.70%
     10    12      300.0000   443      276.0000      300.0000    72920    8.70%
Elapsed time = 92.70 sec. (100060.43 ticks, tree = 0.12 MB, solutions = 5)
     11    13      300.0000   452      276.0000      300.0000    77141    8.70%
     13    15      300.0000   464      276.0000      300.0000    84528    8.70%
     15    17      300.0000   976      276.0000      300.0000    93077    8.70%
     16    18      300.0000   634      276.0000      300.0000    99924    8.70%
     17    19      300.0000   992      276.0000      300.0000   113944    8.70%
     19    21      300.0000   699      276.0000      300.0000   119139    8.70%
     20    22      300.0000  1249      276.0000      300.0000   142367    8.70%
     22    24      300.0000   680      276.0000      300.0000   148515    8.70%
     23    25      300.0000   749      276.0000      300.0000   154064    8.70%
     25    27      300.0000   609      276.0000      300.0000   162424    8.70%
Elapsed time = 122.14 sec. (130370.97 ticks, tree = 0.29 MB, solutions = 5)
     26    28      300.0000   752      276.0000      300.0000   168750    8.70%
     28    30      300.0000  1178      276.0000      300.0000   180094    8.70%
     30    32      300.0000   606      276.0000      300.0000   189305    8.70%
     31    33      300.0000   610      276.0000      300.0000   194320    8.70%
     33    35      300.0000  1120      276.0000      300.0000   197698    8.70%
     35    37      300.0000   743      276.0000      300.0000   199833    8.70%
     37    39      300.0000   712      276.0000      300.0000   201276    8.70%
     38    39      298.7902   924      276.0000      300.0000   203937    8.70%
     40    41      300.0000   740      276.0000      300.0000   204278    8.70%
     43    44      300.0000   917      276.0000      300.0000   206046    8.70%
Elapsed time = 163.65 sec. (174210.83 ticks, tree = 0.53 MB, solutions = 5)
     45    45      298.8163   853      276.0000      300.0000   208787    8.70%
     48    47      298.8164   669      276.0000      300.0000   211548    8.70%
     50    49      300.0000   856      276.0000      300.0000   213151    8.70%
     53    52      300.0000   789      276.0000      300.0000   214307    8.70%
     55    54      300.0000   878      276.0000      300.0000   216673    8.70%
     58    57      300.0000   590      276.0000      300.0000   220039    8.70%
     60    59      300.0000   604      276.0000      300.0000   221330    8.70%
     62    61      300.0000   589      276.0000      300.0000   223295    8.70%
     64    63      300.0000   547      276.0000      300.0000   225147    8.70%
     66    64      298.8486   681      276.0000      300.0000   228139    8.70%
Elapsed time = 175.51 sec. (187844.20 ticks, tree = 0.89 MB, solutions = 5)
     68    65      298.9784   766      276.0000      300.0000   230267    8.70%
     70    67      300.0000   629      276.0000      300.0000   232512    8.70%
     72    68      300.0000   630      276.0000      300.0000   234815    8.70%
     74    70      300.0000   602      276.0000      300.0000   237136    8.70%
     76    71      300.0000   599      276.0000      300.0000   239001    8.70%
     78    72      299.0000   733      276.0000      300.0000   241589    8.70%
     80    74      300.0000   584      276.0000      300.0000   243784    8.70%
     82    76      300.0000   512      276.0000      300.0000   245547    8.70%
     84    77      300.0000   502      276.0000      300.0000   247995    8.70%
     86    79      300.0000   562      276.0000      300.0000   250071    8.70%
Elapsed time = 187.02 sec. (200725.61 ticks, tree = 1.16 MB, solutions = 5)
     89    81      300.0000   480      276.0000      300.0000   252367    8.70%
     92    82      299.0000   692      276.0000      300.0000   254883    8.70%
     94    84      299.0000   507      276.0000      300.0000   256457    8.70%
     98    86      299.0000   501      276.0000      300.0000   256799    8.70%
    101    88      299.0000   501      276.0000      300.0000   258703    8.70%
    104    90      298.3141   616      276.0000      300.0000   261167    8.70%
    108    93      299.0000   495      276.0000      300.0000   262551    8.70%
    111    96      299.0000   494      276.0000      300.0000   263789    8.70%
    115    99      299.0000   447      276.0000      300.0000   265411    8.70%
    119   102      299.0000   462      276.0000      300.0000   266672    8.70%
Elapsed time = 197.90 sec. (212401.77 ticks, tree = 1.56 MB, solutions = 5)
    120   102      298.0000   425      276.0000      300.0000   267406    8.70%
    124   105      298.3784   420      276.0000      300.0000   269481    8.70%
    128   108      298.2273   385      276.0000      300.0000   271289    8.70%
    132   112      299.0000   401      276.0000      300.0000   272648    8.70%
    136   115      299.0000   412      276.0000      300.0000   274443    8.70%
    140   117      298.0000   423      276.0000      300.0000   276665    8.70%
    145   120      299.0000   435      276.0000      300.0000   278406    8.70%
    149   122      298.0000   486      276.0000      300.0000   280368    8.70%
    154   126      298.0000   456      276.0000      300.0000   282349    8.70%
    157   127      296.5833   472      276.0000      300.0000   284867    8.70%
Elapsed time = 209.17 sec. (224017.35 ticks, tree = 1.98 MB, solutions = 5)
    160   129      298.0000   383      276.0000      300.0000   285147    8.70%
    165   132      297.0000   387      276.0000      300.0000   286484    8.70%
    171   136      298.0000   352      276.0000      300.0000   287711    8.70%
    175   139      298.0000   358      276.0000      300.0000   289703    8.70%
    180   142      297.0000   332      276.0000      300.0000   291919    8.70%
    187   147      297.0000   421      276.0000      300.0000   293566    8.70%
    194   151      297.0000   408      276.0000      300.0000   294815    8.70%
    200   155      297.0000   420      276.0000      300.0000   296273    8.70%
    206   159      297.0000   387      276.0000      300.0000   297692    8.70%
    212   164      297.0000   327      276.0000      300.0000   298894    8.70%
Elapsed time = 220.02 sec. (234420.74 ticks, tree = 2.60 MB, solutions = 5)
    219   167      297.0000   362      276.0000      300.0000   300770    8.70%
    222   168      296.0000   353      276.0000      300.0000   301848    8.70%
    228   172      296.0000   410      276.0000      300.0000   303433    8.70%
    234   176      296.0000   419      276.0000      300.0000   304498    8.70%
    241   179      297.0000   369      276.0000      300.0000   306149    8.70%
    248   183      296.0769   402      276.0000      300.0000   307623    8.70%
    254   185      297.0000   368      276.0000      300.0000   308978    8.70%
    260   185      300.0000   433      276.0000      300.0000   312328    8.70%
    263   186      299.0000   582      276.0000      300.0000   314615    8.70%
    266   187      298.0000   558      276.0000      300.0000   316294    8.70%
Elapsed time = 232.69 sec. (246741.85 ticks, tree = 3.03 MB, solutions = 5)
    269   189      297.1087   526      276.0000      300.0000   318760    8.70%
    273   193      298.0000   500      276.0000      300.0000   319418    8.70%
    277   196      298.0000   446      276.0000      300.0000   321645    8.70%
    280   198      296.7391   385      276.0000      300.0000   323449    8.70%
    283   200      298.0000   452      276.0000      300.0000   325258    8.70%
    286   203      298.0000   360      276.0000      300.0000   327472    8.70%
    289   204      296.4545   459      276.0000      300.0000   329969    8.70%
    292   207      298.0000   378      276.0000      300.0000   331686    8.70%
    295   209      296.4545   408      276.0000      300.0000   333857    8.70%
    307   217      297.0000   455      276.0000      300.0000   340089    8.70%
Elapsed time = 246.56 sec. (261472.64 ticks, tree = 3.52 MB, solutions = 5)
    320   226      297.0000   319      276.0000      300.0000   347546    8.70%
    333   236      297.0000   252      276.0000      300.0000   356181    8.70%
    345   244      297.0000   215      276.0000      300.0000   365118    8.70%
    357   251      295.6667   355      276.0000      300.0000   376037    8.70%
    370   260      295.0000   353      276.0000      300.0000   384929    8.70%
    386   271      295.0000   294      276.0000      300.0000   391694    8.70%
    410   278      300.0000   444      276.0000      300.0000   398071    8.70%
    420   286      299.0000   638      276.0000      300.0000   403194    8.70%
    437   296      298.0000   622      276.0000      300.0000   406406    8.70%
    450   306      298.0000   422      276.0000      300.0000   411074    8.70%
Elapsed time = 284.82 sec. (301424.02 ticks, tree = 5.08 MB, solutions = 5)
    467   320      298.0000   312      276.0000      300.0000   415049    8.70%
    490   331      298.0000   323      276.0000      300.0000   420287    8.70%
    511   331      298.0000   576      276.0000      300.0000   428811    8.70%
    522   340      296.0000   499      276.0000      300.0000   431950    8.70%
    540   348      296.0000   346      276.0000      300.0000   436567    8.70%
    561   352    infeasible            276.0000      300.0000   441166    8.70%
    585   362      296.0000   342      276.0000      300.0000   444989    8.70%
    608   373      296.0000   333      276.0000      300.0000   449662    8.70%
    622   376      300.0000   458      276.0000      300.0000   454054    8.70%
    630   381      299.0000   393      276.0000      300.0000   462324    8.70%
Elapsed time = 324.80 sec. (341240.50 ticks, tree = 6.39 MB, solutions = 5)
    639   388      299.0000   504      276.0000      300.0000   471253    8.70%
    648   394      299.0000   533      276.0000      300.0000   477842    8.70%
    660   401      299.0000   482      276.0000      300.0000   485333    8.70%
    673   410      298.2165   400      276.0000      300.0000   492810    8.70%
    684   416      299.0000   446      276.0000      300.0000   500961    8.70%
    697   426      299.0000   344      276.0000      300.0000   509329    8.70%
    710   436      299.0000   344      276.0000      300.0000   518096    8.70%
    730   448      295.8148   333      276.0000      300.0000   526194    8.70%
    754   464      297.0000   392      276.0000      300.0000   532016    8.70%
    778   478      295.0000   284      276.0000      300.0000   538039    8.70%
Elapsed time = 364.55 sec. (381195.91 ticks, tree = 8.10 MB, solutions = 5)
    811   496      298.8636   525      276.0000      300.0000   543556    8.70%
    822   503      295.0000   419      276.0000      300.0000   550359    8.70%
    836   513      293.0000   338      276.0000      300.0000   556528    8.70%
    857   531      290.0000   144      276.0000      300.0000   562453    8.70%
    892   539      290.0000   223      276.0000      300.0000   571021    8.70%
    911   544      298.0000   494      276.0000      300.0000   578895    8.70%
    923   555      297.0000   360      276.0000      300.0000   585397    8.70%
    937   569      297.0000   347      276.0000      300.0000   590276    8.70%
    962   582      290.0000   238      276.0000      300.0000   597316    8.70%
    995   595      300.0000   488      276.0000      300.0000   600806    8.70%
Elapsed time = 405.53 sec. (420939.95 ticks, tree = 10.16 MB, solutions = 5)
*  1000+  597                          277.0000      300.0000             8.30%
   1003   602      299.0000   428      277.0000      300.0000   606704    8.30%
   1015   610      296.0000   444      277.0000      300.0000   613303    8.30%
   1033   620      295.0000   327      277.0000      300.0000   618122    8.30%
   1058   626    infeasible            277.0000      300.0000   623564    8.30%
   1086   630    infeasible            277.0000      300.0000   628115    8.30%
   1115   632    infeasible            277.0000      300.0000   634326    8.30%
   1149   634      300.0000   484      277.0000      300.0000   640438    8.30%
   1160   642      297.0000   453      277.0000      300.0000   647161    8.30%
   1179   650      292.0000   430      277.0000      300.0000   652771    8.30%
   1201   668      289.0000   263      277.0000      300.0000   656855    8.30%
Elapsed time = 445.11 sec. (459688.43 ticks, tree = 11.38 MB, solutions = 6)
   1235   686      300.0000   458      277.0000      300.0000   661831    8.30%
   1244   693      300.0000   406      277.0000      300.0000   669645    8.30%
   1256   701      299.0000   429      277.0000      300.0000   676479    8.30%
   1266   706      298.5517   570      277.0000      300.0000   685363    8.30%
   1276   712      299.0000   338      277.0000      300.0000   695087    8.30%
   1289   722      298.5347   388      277.0000      300.0000   703347    8.30%
   1305   731      298.0000   373      277.0000      300.0000   712993    8.30%
   1322   743      298.0000   291      277.0000      300.0000   721166    8.30%
   1340   749    infeasible            277.0000      300.0000   729498    8.30%
   1364   751    infeasible            277.0000      300.0000   737474    8.30%
Elapsed time = 485.39 sec. (499315.43 ticks, tree = 12.86 MB, solutions = 6)
   1395   751      297.0000   349      277.0000      300.0000   743413    8.30%
   1418   753      300.0000   443      277.0000      300.0000   750023    8.30%
   1429   760      296.0000   548      277.0000      300.0000   757595    8.30%
   1449   775      290.0000   307      277.0000      300.0000   764269    8.30%
   1481   799      290.0000   175      277.0000      300.0000   767612    8.30%
   1496   804    infeasible            277.0000      300.0000   775625    8.30%
   1514   812      296.0000   384      277.0000      300.0000   782047    8.30%
   1538   820      296.0000   380      277.0000      300.0000   787283    8.30%
   1553   825      299.0000   520      277.0000      300.0000   792433    8.30%
   1565   833      297.0000   397      277.0000      300.0000   799562    8.30%
Elapsed time = 527.14 sec. (539287.89 ticks, tree = 14.26 MB, solutions = 6)
   1583   846      292.0000   394      277.0000      300.0000   805811    8.30%
   1611   858    infeasible            277.0000      300.0000   812290    8.30%
*  1620+  859                          283.0000      300.0000             6.01%
*  1620+  859                          284.0000      300.0000             5.63%
   1620   861      300.0000   386      284.0000      300.0000   816443    5.63%
   1629   869      299.0000   443      284.0000      300.0000   823173    5.63%
   1644   883      298.0000   545      284.0000      300.0000   826586    5.63%
   1662   896      298.0000   534      284.0000      300.0000   827749    5.63%
   1680   912      298.0000   461      284.0000      300.0000   828629    5.63%
Starting limited solution polishing.
   1702   930      298.0000   428      284.0000      300.0000   830595    5.63%
   1722   947      298.0000   394      284.0000      300.0000   832493    5.63%

Performing restart 1

Repeating presolve.
Tried aggregator 1 time.
MIP Presolve eliminated 0 rows and 284 columns.
MIP Presolve modified 21501 coefficients.
Reduced MIP has 1813 rows, 7516 columns, and 79368 nonzeros.
Reduced MIP has 7516 binaries, 0 generals, 0 SOSs, and 0 indicators.
Presolve time = 0.07 sec. (61.65 ticks)
Tried aggregator 1 time.
Reduced MIP has 1813 rows, 7516 columns, and 79368 nonzeros.
Reduced MIP has 7516 binaries, 0 generals, 0 SOSs, and 0 indicators.
Presolve time = 0.06 sec. (45.19 ticks)
Represolve time = 0.46 sec. (287.68 ticks)

Clique cuts applied:  27
Cover cuts applied:  1
Zero-half cuts applied:  21
Gomory fractional cuts applied:  3

Root node processing (before b&c):
  Real time             =   67.91 sec. (73985.41 ticks)
Sequential b&c:
  Real time             =  532.10 sec. (532761.95 ticks)
                          ------------
Total (root+branch&cut) =  600.01 sec. (606747.36 ticks)
Primal:	284
Dual:	300
Status:	Feasible
Time:	598.76
Sequence:
	19
	5
	12
	8
	20
	0
	18
	5
	14
	10
	13
	5
	12
	10
	18
	0
	20
	8
	12
	5
	22
	1
	20
	8
	12
	6
	20
	4
	18
	5
	12
	8
	19
	1
	20
	8
	12
	6
	20
	4
	18
	5
	13
	10
	18
	1
	18
	3
	20
	5
	17
	5
	19
	4
	18
	5
	16
	7
	18
	2
	20
	5
	15
	5
	18
	4
	18
	6
	17
	5
	20
	2
	19
	5
	17
	5
	18
	0
	23
	5
	14
	8
	18
	0
	20
	10
	12
	5
	19
	4
	20
	5
	12
	9
	18
	1
	18
	10
	13
	5
	18
	2
	20
	6
	17
	5
	18
	2
	20
	7
	16
	5
	18
	4
	18
	7
	16
	5
	20
	2
	18
	5
	12
	9
	18
	1
	18
	8
	15
	5
	17
	5
	18
	3
	18
	5
	12
	10
	18
	0
	20
	5
	17
	5
	18
	3
	20
	5
	16
	5
	7
	16
	5
	5
	17
	6
	20
	2
	18
	5
	15
	5
	18
	2
	20
	7
	16
	5
	18
	4
	21
	5
	12
	8
	20
	0
	18
	10
	12
	5
	12
	8
	20
	1
	18
	9
	12
	5
	16
	5
	21
	1
	18
	8
	12
	5
	11
	14
	5
	8
	12
	6
	8
	14
	5
	17
	5
	18
	0
	12
	10
	12
	5
	8
	12
	5
	12
	9
	5
	14
	5
	14
	6
	8
	14
	5
	12
	9
	12
	5
	17
	5
	7
	12
	8
	14
	5
	9
	12
	5
	12
	10
	12
	7
	12
	5
	12
	10
	18
	0
	20
	8
	14
	5
	16
	7
	12
	10
	5
	12
	8
	14
	7
	12
	8
	5
	14
	5
	14
	9
	5
	14
	5
	8
	13
	5
	10
	14
	5
	13
	5
	14
	8
	20
